jobs  (incl. supersource/sink ):	52
RESOURCES
- renewable                 : 2 R
- nonrenewable              : 2 N
- doubly constrained        : 0 D
************************************************************************
PRECEDENCE RELATIONS:
jobnr.    #modes  #successors   successors
1	1	23		2 3 4 5 6 7 8 9 10 11 12 13 14 15 16 17 18 22 23 24 25 26 34 
2	9	10		49 48 45 44 33 32 30 27 20 19 
3	9	7		50 49 33 29 27 21 20 
4	9	11		49 46 45 44 43 42 40 32 29 28 19 
5	9	11		47 46 45 44 40 39 35 32 31 30 27 
6	9	11		50 48 45 44 41 38 33 32 29 28 27 
7	9	13		49 48 45 44 43 42 41 39 38 37 33 32 28 
8	9	8		49 48 43 42 40 32 29 19 
9	9	10		50 49 47 46 45 41 37 32 30 29 
10	9	11		50 48 44 43 41 40 39 38 37 32 28 
11	9	8		48 46 41 40 39 35 30 27 
12	9	5		50 48 40 32 19 
13	9	5		50 49 45 32 19 
14	9	7		48 46 44 40 35 30 27 
15	9	6		47 40 35 32 30 27 
16	9	6		48 46 45 38 33 28 
17	9	8		50 48 44 39 38 37 36 35 
18	9	6		44 43 41 40 39 28 
19	9	7		51 47 41 39 38 37 35 
20	9	7		46 43 42 41 40 38 36 
21	9	7		47 46 45 44 42 37 35 
22	9	5		43 41 39 37 28 
23	9	4		51 40 36 29 
24	9	4		45 42 37 29 
25	9	5		46 44 42 40 38 
26	9	4		45 44 37 36 
27	9	3		43 42 37 
28	9	2		36 35 
29	9	2		39 35 
30	9	2		38 36 
31	9	2		49 41 
32	9	1		36 
33	9	1		40 
34	9	1		44 
35	9	1		52 
36	9	1		52 
37	9	1		52 
38	9	1		52 
39	9	1		52 
40	9	1		52 
41	9	1		52 
42	9	1		52 
43	9	1		52 
44	9	1		52 
45	9	1		52 
46	9	1		52 
47	9	1		52 
48	9	1		52 
49	9	1		52 
50	9	1		52 
51	9	1		52 
52	1	0		
************************************************************************
REQUESTS/DURATIONS
jobnr.	mode	dur	R1	R2	N1	N2	
------------------------------------------------------------------------
1	1	0	0	0	0	0	
2	1	2	3	4	23	6	
	2	6	2	4	22	5	
	3	7	2	4	20	5	
	4	12	2	4	19	4	
	5	14	2	4	17	4	
	6	16	2	4	17	3	
	7	17	2	4	16	3	
	8	18	2	4	14	3	
	9	22	2	4	12	3	
3	1	4	2	5	22	10	
	2	8	2	4	20	10	
	3	13	2	4	19	9	
	4	14	2	4	17	9	
	5	15	1	4	14	8	
	6	18	1	4	13	8	
	7	20	1	4	11	7	
	8	21	1	4	8	6	
	9	30	1	4	5	6	
4	1	3	3	4	26	9	
	2	7	3	4	24	9	
	3	11	3	4	22	9	
	4	16	3	4	20	9	
	5	20	3	3	19	9	
	6	21	3	3	17	9	
	7	24	3	3	15	9	
	8	26	3	3	13	9	
	9	30	3	3	11	9	
5	1	1	4	1	9	30	
	2	7	4	1	7	28	
	3	9	4	1	6	25	
	4	12	4	1	6	24	
	5	19	4	1	4	23	
	6	23	4	1	4	20	
	7	26	4	1	2	20	
	8	27	4	1	1	17	
	9	30	4	1	1	16	
6	1	2	5	1	15	15	
	2	5	4	1	13	14	
	3	10	4	1	13	11	
	4	11	4	1	13	9	
	5	12	4	1	12	7	
	6	13	4	1	11	7	
	7	14	4	1	11	6	
	8	17	4	1	10	2	
	9	25	4	1	10	1	
7	1	1	4	2	29	22	
	2	2	4	2	26	19	
	3	8	4	2	26	18	
	4	12	4	2	24	18	
	5	15	3	2	22	16	
	6	17	3	2	20	15	
	7	19	3	2	20	13	
	8	23	2	2	17	12	
	9	25	2	2	16	12	
8	1	4	3	5	15	22	
	2	7	3	5	13	20	
	3	17	3	5	11	18	
	4	18	3	5	9	15	
	5	19	3	5	8	13	
	6	20	3	5	8	9	
	7	22	3	5	4	8	
	8	23	3	5	3	7	
	9	26	3	5	1	3	
9	1	1	4	4	10	14	
	2	8	4	4	10	13	
	3	11	4	4	10	11	
	4	14	4	3	10	10	
	5	17	4	3	10	9	
	6	18	3	2	10	8	
	7	22	3	2	10	7	
	8	24	3	1	10	7	
	9	27	3	1	10	5	
10	1	7	2	2	19	17	
	2	10	2	2	16	17	
	3	13	2	2	16	16	
	4	14	2	2	15	16	
	5	17	2	2	13	15	
	6	19	1	2	12	15	
	7	22	1	2	11	14	
	8	25	1	2	10	14	
	9	30	1	2	9	13	
11	1	3	4	5	15	23	
	2	4	4	4	14	23	
	3	5	4	4	14	22	
	4	6	4	4	13	22	
	5	8	4	4	13	21	
	6	10	4	4	13	20	
	7	16	4	4	12	21	
	8	23	4	4	11	21	
	9	29	4	4	11	20	
12	1	2	2	2	18	5	
	2	3	1	1	17	5	
	3	5	1	1	15	5	
	4	10	1	1	13	5	
	5	13	1	1	11	5	
	6	15	1	1	9	5	
	7	16	1	1	7	5	
	8	17	1	1	4	5	
	9	25	1	1	1	5	
13	1	1	3	3	17	29	
	2	4	3	3	16	28	
	3	10	3	3	16	27	
	4	12	3	2	16	28	
	5	13	2	2	15	28	
	6	20	2	2	15	27	
	7	24	1	1	15	28	
	8	27	1	1	15	27	
	9	30	1	1	15	26	
14	1	1	3	4	22	16	
	2	7	2	3	18	12	
	3	8	2	3	16	12	
	4	13	2	2	14	10	
	5	17	1	2	13	7	
	6	18	1	2	10	7	
	7	19	1	1	7	5	
	8	27	1	1	6	2	
	9	28	1	1	4	1	
15	1	3	1	3	22	6	
	2	4	1	2	19	5	
	3	5	1	2	17	5	
	4	10	1	2	14	5	
	5	11	1	1	12	4	
	6	14	1	1	9	4	
	7	15	1	1	7	4	
	8	20	1	1	4	4	
	9	30	1	1	1	4	
16	1	4	5	5	9	27	
	2	9	4	5	9	25	
	3	14	4	5	8	25	
	4	16	3	5	7	23	
	5	19	2	5	5	23	
	6	20	2	5	4	21	
	7	21	2	5	4	20	
	8	22	1	5	3	20	
	9	23	1	5	2	19	
17	1	3	4	3	12	20	
	2	6	4	2	12	20	
	3	8	4	2	10	20	
	4	9	3	2	10	20	
	5	11	3	2	8	20	
	6	12	3	1	7	20	
	7	18	3	1	6	20	
	8	23	2	1	5	20	
	9	25	2	1	3	20	
18	1	3	5	4	15	18	
	2	4	4	4	15	17	
	3	5	4	4	15	16	
	4	6	3	4	15	16	
	5	8	3	4	15	15	
	6	16	3	3	15	13	
	7	17	3	3	15	12	
	8	20	2	3	15	11	
	9	27	2	3	15	10	
19	1	1	4	4	20	16	
	2	2	4	3	18	14	
	3	3	4	3	18	11	
	4	5	4	3	17	11	
	5	16	4	3	17	9	
	6	24	4	3	16	8	
	7	27	4	3	16	4	
	8	29	4	3	15	4	
	9	30	4	3	14	2	
20	1	7	3	5	24	20	
	2	8	3	4	23	19	
	3	9	3	4	22	19	
	4	11	3	4	20	18	
	5	12	3	4	17	17	
	6	13	3	4	16	16	
	7	16	3	4	14	16	
	8	23	3	4	13	15	
	9	24	3	4	12	14	
21	1	3	3	5	18	23	
	2	4	2	4	18	18	
	3	5	2	4	18	17	
	4	10	2	4	18	14	
	5	17	1	4	18	11	
	6	18	1	4	18	10	
	7	19	1	4	18	9	
	8	25	1	4	18	5	
	9	30	1	4	18	3	
22	1	2	5	3	27	23	
	2	3	4	2	26	22	
	3	5	4	2	26	21	
	4	6	3	2	25	21	
	5	7	3	2	25	20	
	6	8	2	2	24	20	
	7	9	1	2	23	20	
	8	11	1	2	23	19	
	9	26	1	2	23	18	
23	1	2	4	3	5	8	
	2	5	3	2	4	6	
	3	7	3	2	4	5	
	4	9	3	2	4	4	
	5	10	3	1	3	4	
	6	12	2	1	3	4	
	7	18	2	1	3	3	
	8	20	2	1	3	2	
	9	23	2	1	3	1	
24	1	3	5	5	25	25	
	2	7	4	4	25	22	
	3	10	4	4	24	21	
	4	11	4	3	24	20	
	5	15	3	2	24	20	
	6	24	3	2	23	19	
	7	25	3	1	23	18	
	8	26	3	1	22	17	
	9	27	3	1	22	16	
25	1	3	2	2	17	11	
	2	4	2	2	16	10	
	3	5	2	2	16	9	
	4	6	2	2	16	8	
	5	7	1	1	15	9	
	6	8	1	1	15	8	
	7	13	1	1	15	7	
	8	14	1	1	15	6	
	9	27	1	1	15	5	
26	1	6	4	1	22	11	
	2	7	3	1	19	10	
	3	8	3	1	18	9	
	4	14	2	1	16	8	
	5	16	2	1	15	7	
	6	18	2	1	15	6	
	7	25	2	1	12	6	
	8	26	1	1	12	6	
	9	27	1	1	11	5	
27	1	2	1	4	6	27	
	2	6	1	4	6	23	
	3	8	1	4	5	21	
	4	12	1	4	4	18	
	5	20	1	4	4	15	
	6	24	1	4	4	14	
	7	25	1	4	3	11	
	8	29	1	4	2	9	
	9	30	1	4	2	6	
28	1	5	4	5	22	28	
	2	12	4	5	22	27	
	3	12	3	5	22	29	
	4	13	3	5	22	28	
	5	19	3	5	22	27	
	6	21	2	5	22	28	
	7	22	2	5	22	27	
	8	23	1	5	22	28	
	9	30	1	5	22	27	
29	1	12	5	3	25	27	
	2	13	5	3	20	26	
	3	14	5	3	19	26	
	4	15	5	3	15	26	
	5	16	5	3	13	25	
	6	18	5	2	11	25	
	7	20	5	2	9	25	
	8	26	5	2	7	25	
	9	27	5	2	2	25	
30	1	7	3	2	26	27	
	2	9	2	1	26	25	
	3	10	2	1	22	23	
	4	14	2	1	22	22	
	5	17	1	1	20	21	
	6	18	1	1	18	20	
	7	24	1	1	15	19	
	8	26	1	1	12	16	
	9	29	1	1	11	16	
31	1	8	3	5	24	17	
	2	14	2	4	22	16	
	3	15	2	4	20	16	
	4	17	2	4	17	16	
	5	19	1	3	17	16	
	6	20	1	3	15	16	
	7	21	1	3	14	16	
	8	26	1	2	13	16	
	9	27	1	2	11	16	
32	1	1	1	4	21	12	
	2	12	1	3	19	11	
	3	13	1	3	18	11	
	4	14	1	2	16	11	
	5	19	1	2	14	10	
	6	27	1	2	13	10	
	7	28	1	1	11	10	
	8	29	1	1	11	9	
	9	30	1	1	9	9	
33	1	3	3	3	29	27	
	2	5	3	2	26	25	
	3	6	3	2	24	25	
	4	11	3	2	19	23	
	5	12	3	2	19	22	
	6	18	3	2	15	21	
	7	20	3	2	12	21	
	8	26	3	2	8	20	
	9	29	3	2	7	19	
34	1	3	4	2	10	28	
	2	4	3	2	9	26	
	3	17	3	2	7	24	
	4	18	2	2	6	19	
	5	19	2	2	6	17	
	6	21	2	1	5	14	
	7	24	1	1	4	11	
	8	26	1	1	2	9	
	9	27	1	1	2	8	
35	1	6	4	5	12	24	
	2	7	4	4	12	21	
	3	8	4	4	11	19	
	4	11	4	4	9	16	
	5	15	4	3	9	12	
	6	16	4	3	8	12	
	7	17	4	3	7	10	
	8	19	4	3	5	6	
	9	27	4	3	5	3	
36	1	1	4	2	14	26	
	2	3	3	2	11	25	
	3	13	3	2	10	25	
	4	14	3	2	10	24	
	5	22	2	2	8	24	
	6	24	2	2	6	23	
	7	26	2	2	6	22	
	8	28	2	2	5	21	
	9	30	2	2	3	21	
37	1	1	4	4	14	28	
	2	4	4	3	12	27	
	3	7	4	3	11	27	
	4	8	4	3	10	27	
	5	9	4	2	8	26	
	6	10	4	2	6	26	
	7	14	4	1	5	26	
	8	24	4	1	5	25	
	9	25	4	1	3	26	
38	1	12	4	1	27	23	
	2	13	4	1	27	22	
	3	14	4	1	25	20	
	4	15	4	1	22	17	
	5	17	3	1	22	15	
	6	25	3	1	19	12	
	7	26	3	1	17	7	
	8	27	3	1	15	7	
	9	29	3	1	15	3	
39	1	2	2	4	29	28	
	2	3	1	4	28	26	
	3	5	1	4	28	25	
	4	6	1	4	27	25	
	5	10	1	4	27	24	
	6	13	1	4	26	24	
	7	14	1	4	26	23	
	8	15	1	4	25	22	
	9	25	1	4	25	21	
40	1	3	4	4	14	18	
	2	4	4	4	13	17	
	3	10	4	4	13	16	
	4	11	4	4	12	14	
	5	14	3	4	12	14	
	6	15	3	4	12	13	
	7	16	2	4	12	13	
	8	19	2	4	11	12	
	9	24	2	4	11	11	
41	1	3	3	5	30	23	
	2	10	3	4	26	22	
	3	11	3	4	26	20	
	4	17	2	4	25	18	
	5	18	2	4	23	13	
	6	20	2	4	22	11	
	7	21	2	4	19	11	
	8	22	1	4	19	8	
	9	26	1	4	16	5	
42	1	1	2	3	28	22	
	2	8	2	2	23	22	
	3	9	2	2	21	21	
	4	10	2	2	19	20	
	5	17	2	1	14	19	
	6	18	2	1	10	18	
	7	19	2	1	8	17	
	8	27	2	1	7	16	
	9	28	2	1	1	15	
43	1	3	4	1	24	18	
	2	8	4	1	21	17	
	3	9	4	1	20	17	
	4	13	4	1	18	17	
	5	14	4	1	16	16	
	6	15	4	1	13	16	
	7	16	4	1	9	16	
	8	22	4	1	9	15	
	9	30	4	1	7	16	
44	1	1	5	5	27	19	
	2	13	4	5	27	19	
	3	18	4	5	26	19	
	4	23	4	5	25	19	
	5	24	3	5	24	19	
	6	25	3	5	23	19	
	7	27	3	5	23	18	
	8	27	3	5	21	20	
	9	28	3	5	21	19	
45	1	2	2	4	27	20	
	2	11	2	4	27	18	
	3	13	2	4	27	15	
	4	19	2	4	27	13	
	5	20	2	3	27	12	
	6	21	1	3	27	8	
	7	23	1	3	27	7	
	8	24	1	3	27	5	
	9	29	1	3	27	3	
46	1	4	3	5	26	19	
	2	5	2	4	25	18	
	3	16	2	4	25	15	
	4	20	2	4	24	13	
	5	21	2	3	23	13	
	6	22	2	3	22	11	
	7	23	2	3	20	8	
	8	24	2	3	19	6	
	9	26	2	3	19	5	
47	1	2	3	3	21	8	
	2	8	3	3	21	7	
	3	9	3	3	20	6	
	4	13	3	3	17	5	
	5	17	2	2	17	5	
	6	18	2	2	15	4	
	7	19	2	2	14	4	
	8	20	2	2	13	2	
	9	28	2	2	12	2	
48	1	2	4	4	7	17	
	2	12	3	4	5	16	
	3	21	3	3	5	15	
	4	22	3	3	4	15	
	5	23	3	3	4	14	
	6	24	3	2	3	14	
	7	25	3	1	3	13	
	8	27	3	1	3	12	
	9	28	3	1	2	13	
49	1	9	2	4	27	22	
	2	13	2	4	26	20	
	3	15	2	4	26	19	
	4	17	2	4	26	17	
	5	21	2	3	26	15	
	6	22	2	3	26	14	
	7	23	2	3	26	13	
	8	25	2	2	26	11	
	9	28	2	2	26	10	
50	1	1	5	3	25	23	
	2	2	5	3	25	21	
	3	9	5	3	24	21	
	4	14	5	3	23	19	
	5	15	5	2	22	19	
	6	16	5	2	22	18	
	7	18	5	2	20	16	
	8	26	5	2	20	15	
	9	30	5	2	19	15	
51	1	1	4	3	21	19	
	2	4	3	3	21	18	
	3	8	3	3	18	17	
	4	15	2	2	18	14	
	5	19	2	2	14	12	
	6	24	2	2	13	10	
	7	25	2	2	11	8	
	8	28	1	1	10	7	
	9	30	1	1	8	6	
52	1	0	0	0	0	0	
************************************************************************

 RESOURCE AVAILABILITIES 
	R 1	R 2	N 1	N 2
	157	148	876	874

************************************************************************
